param set_len = 50;
param target_sum = 15222199414;
param values := [1] 866475804 [2] 1067847741 [3] 812581967 [4] 362207350 [5] 786398418 [6] 531173078 [7] 407399460 [8] 496784662 [9] 289874234 [10] 115516839 [11] 523385072 [12] 170994947 [13] 740266825 [14] 373752213 [15] 972498232 [16] 584147173 [17] 380049008 [18] 116043203 [19] 906203872 [20] 776615014 [21] 662312271 [22] 324983614 [23] 929608656 [24] 462717523 [25] 612700103 [26] 908666859 [27] 33153992 [28] 1037634802 [29] 355415602 [30] 387324803 [31] 568245350 [32] 1033663373 [33] 940990794 [34] 484274289 [35] 625975777 [36] 428699784 [37] 341921802 [38] 887768833 [39] 847084928 [40] 577464476 [41] 812665806 [42] 435599809 [43] 894360849 [44] 552153036 [45] 39597123 [46] 65070146 [47] 521536951 [48] 230698914 [49] 832184317 [50] 626601499 ;
